45
498 496 
493 491 
491 485 
483 465 
448 444 
433 432 
429 427 
424 421 
421 414 
408 406 
403 402 
399 398 
396 393 
392 389 
389 383 
381 380 
375 372 253 
372 368 260 
367 366 266 
365 365 268 
363 363 271 
363 357 280 
353 353 294 
351 347 298 
340 338 322 
336 335 329 
331 330 328 
328 325 324 
317 316 316 
313 311 311 
308 308 303 
303 303 296 
296 295 295 
292 289 289 
283 282 279 
277 276 275 
268 268 265 
265 265 262 
262 260 260 
259 259 259 
259 257 256 
255 254 254 
253 252 252 
251 251 251 
250 250 250 250 
